15
10
68
39
21
74
48
83
81
45
28
73
94
14
36
29
49
78
9
33
60
0
44
43
82
97
89
1
18
3
99
46
76
34
12
5
22
63
66
30
71
16
55
91
84
86
20
25
92
41
93
70
4
38
31
53
69
58
80
75
7
23
88
56
64
47
37
24
42
2
6
79
72
90
32
85
8
62
96
95
11
65
67
87
57
98
17
61
19
51
35
52
50
54
13
26
27
59
40
77
